clasp version 2.1.3
Reading from asp/inst/pb_200_04.lp
Solving...
UNKNOWN

TIME LIMIT  : 1
Models      : 0+    
Time        : 1799.981s (Solving: 1798.81s 1st Model: 0.00s Unsat: 0.00s)
CPU Time    : 1785.330s
Choices     : 1921539
Conflicts   : 1546251
Restarts    : 22     (Average: 70284.14 Last: 1496161)

Atoms       : 188321 (Original: 10984 Auxiliary: 177337)
Rules       : 383718 (1: 17554/382467 2: 1051/0 3: 200/0)
Bodies      : 349602
Equivalences: 387178 (Atom=Atom: 3702 Body=Body: 4800 Other: 378676)
Tight       : Yes

Variables   : 341627 (Eliminated:    0 Frozen:    0)
Constraints : 983213 (Binary: 67.9% Ternary: 31.9% Other:  0.2%)
Lemmas      : 1546251 (Binary:  0.2% Ternary:  0.2% Other: 99.7%)
  Conflict  : 1546251 (Average Length: 550.1) 
  Loop      : 0      (Average Length: 0.0) 
  Other     : 0      (Average Length: 0.0)
  Deleted   : 1499531
